! B3LYP 6-31G* SP

* xyz -1 1
C -2.9488 0.8088 -0.5972
C -1.9733 1.7919 0.0131
C -0.6410 1.4064 0.2940
N -0.1846 0.0736 0.0373
C 0.2973 -0.3032 -1.2934
C 1.7769 -0.5480 -1.2645
C 2.6684 0.5057 -1.0253
C 4.0405 0.2426 -0.9351
C 4.9581 1.2723 -0.6797
C 6.3242 0.9893 -0.5889
C 6.7825 -0.3243 -0.7481
C 5.8774 -1.3634 -0.9965
C 4.5049 -1.0840 -1.0923
C 3.5778 -2.1036 -1.3432
N 2.2516 -1.8163 -1.4147
S -0.1580 -1.0714 1.3427
O -0.7421 -0.4465 2.5805
O 1.2589 -1.4746 1.6413
C -1.1156 -2.4808 0.9053
C -2.4977 -2.4875 1.1325
C -3.2679 -3.5941 0.7630
C -2.6653 -4.7105 0.1555
C -3.4778 -5.8832 -0.2391
O -4.7183 -5.9140 -0.0062
O -2.8835 -6.9687 -0.8729
C -1.2767 -4.6951 -0.0742
C -0.5090 -3.5867 0.2968
N 0.2245 2.2933 0.8486
C -0.1331 3.5630 1.1581
C -1.4392 4.0012 0.9253
C -1.8181 5.3102 1.2628
C -3.1244 5.7432 1.0378
C -4.0581 4.8774 0.4751
C -3.6961 3.5719 0.1294
C -2.3796 3.1107 0.3483
H -3.7723 0.6077 0.1210
H -3.3715 1.2301 -1.5343
H -2.4851 -0.1637 -0.8541
H -0.2347 -1.2203 -1.6319
H 0.0731 0.4988 -2.0331
H 2.2943 1.5163 -0.9020
H 4.6204 2.2957 -0.5555
H 7.0299 1.7847 -0.3960
H 7.8411 -0.5402 -0.6753
H 6.2482 -2.3762 -1.1145
H 3.9039 -3.1311 -1.4730
H -2.9810 -1.6338 1.5903
H -4.3353 -3.5734 0.9498
H -0.7823 -5.5380 -0.5416
H 0.5567 -3.5909 0.1040
H 0.6037 4.2250 1.6021
H -1.1039 5.9968 1.7060
H -3.4120 6.7529 1.3030
H -5.0728 5.2186 0.2976
H -4.4548 2.9353 -0.3028
*
