! B3LYP 6-31G* SP

* xyz -1 1
C 1.2148 0.8270 2.0343
C 0.6155 1.4160 0.7759
C -0.1463 0.6127 -0.1058
N -0.3639 -0.7784 0.1559
C 0.3687 -1.7844 -0.6129
C 1.8110 -1.7800 -0.2053
C 2.2694 -2.6201 0.8178
C 3.5959 -2.5226 1.2391
C 4.4473 -1.5841 0.6524
F 5.7325 -1.4839 1.0765
C 3.9549 -0.7471 -0.3621
C 4.8302 0.2990 -0.9895
F 5.9444 -0.2982 -1.5502
F 5.2334 1.2053 -0.0260
F 4.1416 0.9780 -1.9799
N 2.6568 -0.8661 -0.7552
S -1.6916 -1.2526 1.1656
O -1.2656 -2.3885 2.0532
O -2.1101 -0.1025 2.0388
C -3.0425 -1.7358 0.1484
C -3.8194 -0.7597 -0.4859
C -4.8822 -1.1330 -1.3138
C -5.1791 -2.4912 -1.5231
C -6.3043 -2.8840 -2.3995
O -6.5723 -4.0998 -2.5925
O -7.0830 -1.9156 -3.0226
C -4.3888 -3.4671 -0.8894
C -3.3265 -3.0908 -0.0622
N -0.6635 1.1471 -1.2427
C -0.4864 2.4466 -1.5816
C 0.2612 3.2915 -0.7577
C 0.4555 4.6354 -1.1123
C 1.2104 5.4751 -0.2930
C 1.7767 4.9816 0.8822
C 1.5902 3.6460 1.2485
C 0.8267 2.7778 0.4366
H 2.3224 0.8893 1.9840
H 0.8501 1.3866 2.9211
H 0.9477 -0.2371 2.1862
H 0.2847 -1.5600 -1.6983
H -0.0701 -2.7933 -0.4536
H 1.6044 -3.3314 1.2916
H 3.9602 -3.1665 2.0291
H -3.6000 0.2910 -0.3422
H -5.4685 -0.3580 -1.7910
H -4.5890 -4.5214 -1.0346
H -2.7252 -3.8576 0.4087
H -0.9258 2.8156 -2.5002
H 0.0254 5.0349 -2.0233
H 1.3586 6.5107 -0.5705
H 2.3635 5.6368 1.5132
H 2.0499 3.3068 2.1667
*
