! B3LYP 6-31G* SP

* xyz 0 1
C -7.2445 0.0759 -2.0180
N -6.3049 0.3148 -0.9084
C -5.1123 -0.3714 -0.8656
O -4.8292 -1.2197 -1.7558
C -4.2102 -0.1123 0.1712
C -2.9283 -0.6850 0.4133
C -2.3077 -1.7438 -0.4636
C -0.9484 -2.1602 0.0194
O -0.8396 -3.1965 0.7281
N 0.1979 -1.3504 -0.2906
C 1.5446 -1.6304 0.1207
N 2.5751 -0.8121 -0.1792
C 3.7639 -1.2710 0.3057
C 5.0276 -0.5164 0.0950
C 4.9804 0.8114 -0.3651
C 6.1557 1.5388 -0.5707
C 7.4096 0.9549 -0.3219
C 8.6909 1.7223 -0.5448
F 9.4265 1.7454 0.6265
F 9.4335 1.1005 -1.5322
F 8.4463 3.0282 -0.9338
C 7.4620 -0.3763 0.1271
F 8.6568 -0.9769 0.3614
C 6.2849 -1.1027 0.3330
C 3.6721 -2.4773 1.0086
S 2.0627 -2.9636 1.0072
N -2.2813 -0.1996 1.5138
S -3.2930 0.9388 2.1865
C -4.5586 0.8327 1.1081
N -5.7281 1.5253 1.0766
C -6.0102 2.5625 2.0793
C -6.5920 1.2820 0.0355
O -7.6569 1.9558 -0.0612
H -7.0107 0.7631 -2.8581
H -7.1872 -0.9734 -2.3784
H -8.2959 0.2359 -1.6967
H -2.9747 -2.6325 -0.4880
H -2.2138 -1.3527 -1.4990
H 0.0431 -0.4821 -0.8509
H 4.0317 1.2951 -0.5612
H 6.0768 2.5587 -0.9244
H 6.3699 -2.1284 0.6627
H 4.4754 -3.0119 1.4949
H -7.1033 2.7011 2.2197
H -5.5972 2.2789 3.0704
H -5.5594 3.5244 1.7566
*
