! B3LYP def2-TZVP SP

* xyz 0 1
C -1.9417 1.8756 -1.5905
C -1.1671 2.3807 -0.3919
C -0.4610 1.4802 0.4353
N -0.3877 0.0833 0.1257
C 0.4933 -0.3805 -0.9495
C 1.8570 -0.7040 -0.4031
C 2.2237 -2.0335 -0.1462
C 3.4683 -2.3248 0.4183
C 4.3632 -1.2973 0.7392
O 5.5872 -1.6483 1.3304
C 6.5955 -0.7286 1.7464
F 6.0819 0.1554 2.6780
F 7.6299 -1.4332 2.3285
F 7.0852 -0.0353 0.6545
C 4.0013 0.0371 0.4678
C 2.7555 0.3287 -0.0956
S -1.0639 -1.0573 1.2470
O 0.0177 -1.5760 2.1521
O -2.1147 -0.3851 2.0862
C -1.8202 -2.3739 0.3589
C -2.9663 -2.1219 -0.4050
C -3.5597 -3.1488 -1.1430
C -3.0105 -4.4429 -1.1324
C -3.6363 -5.5261 -1.9218
O -3.1466 -6.6881 -1.9139
O -4.7742 -5.2723 -2.6818
C -1.8577 -4.6885 -0.3655
C -1.2691 -3.6613 0.3770
N 0.1712 1.9307 1.5482
C 0.1881 3.2355 1.9106
Br 1.1346 3.6885 3.5164
C -0.4618 4.1923 1.1090
C -0.4488 5.5606 1.4432
C -1.0932 6.4925 0.6312
C -1.7551 6.0783 -0.5217
C -1.7832 4.7277 -0.8701
C -1.1447 3.7611 -0.0618
H -1.4649 2.2389 -2.5253
H -2.9909 2.2367 -1.5413
H -1.9938 0.7695 -1.6356
H 0.5887 0.4017 -1.7345
H 0.0452 -1.2687 -1.4444
H 1.5447 -2.8441 -0.3757
H 3.7358 -3.3554 0.6177
H 4.6671 0.8560 0.6954
H 2.4865 1.3611 -0.2839
H -3.3962 -1.1275 -0.4350
H -4.4443 -2.9266 -1.7266
H -5.2114 -6.0062 -3.2276
H -1.4097 -5.6733 -0.3418
H -0.3790 -3.8714 0.9556
H 0.0576 5.9234 2.3275
H -1.0751 7.5416 0.8957
H -2.2490 6.8071 -1.1506
H -2.3012 4.4565 -1.7797
*
