! B3LYP 6-31G* SP

* xyz 0 1
C -4.0701 1.9804 -1.8012
N -4.1354 0.9277 -0.7713
C -3.3763 1.0407 0.3718
O -2.6276 2.0404 0.5430
C -3.4453 0.0348 1.3430
C -2.7924 -0.0546 2.6094
C -1.8103 0.9460 3.1499
C -0.4499 0.6914 2.5762
O 0.0093 1.4705 1.6985
N 0.3095 -0.4442 3.0187
C 1.5330 -0.8715 2.4073
N 2.0611 -0.3132 1.2972
C 3.2130 -0.9313 0.9118
C 3.9698 -0.4952 -0.2902
C 5.3464 -0.7623 -0.4049
C 6.0612 -0.3523 -1.5326
C 5.4198 0.3446 -2.5710
C 6.1753 0.7749 -3.8058
F 5.7392 0.0363 -4.8904
F 7.5398 0.5871 -3.6615
F 5.9450 2.1169 -4.0511
C 4.0420 0.6056 -2.4657
F 3.3878 1.2510 -3.4661
C 3.3248 0.1983 -1.3348
F 1.9937 0.4571 -1.2817
C 3.5976 -1.9990 1.7300
S 2.4575 -2.1604 2.9565
N -3.0708 -1.1827 3.3232
S -4.1358 -2.0692 2.3994
C -4.2512 -1.0505 1.0874
N -4.9624 -1.2047 -0.0608
C -5.7984 -2.3986 -0.2545
C -4.9072 -0.1959 -0.9932
O -5.5691 -0.2980 -2.0651
H -5.0497 2.0994 -2.3142
H -3.8319 2.9709 -1.3582
H -3.2935 1.7200 -2.5517
H -1.7560 0.8502 4.2560
H -2.1446 1.9839 2.9433
H -0.0595 -1.0078 3.8173
H 5.8821 -1.2747 0.3839
H 7.1181 -0.5813 -1.5854
H 4.4587 -2.6397 1.5953
H -6.0972 -2.5308 -1.3154
H -6.7132 -2.3176 0.3706
H -5.2370 -3.3124 0.0372
*
