! B3LYP 6-31G* SP

* xyz 0 1
C -1.9014 -5.8258 -3.0916
C -1.3533 -5.2114 -1.8279
C -0.8546 -6.0602 -0.8287
C -0.3415 -5.5387 0.3546
C -0.3117 -4.1624 0.5642
C -0.7983 -3.2719 -0.4163
C -0.7671 -1.8648 -0.2227
C -0.1631 -1.2633 1.0275
C -1.3018 -1.0329 -1.2315
N -1.3215 0.3932 -1.0924
C -0.4105 1.2102 -1.8965
C 0.9866 1.1109 -1.3484
C 1.4300 2.0128 -0.3695
C 2.6976 1.8704 0.2012
C 3.5415 0.8152 -0.1971
O 4.8212 0.6198 0.3467
C 5.4206 1.4315 1.3543
F 4.6559 1.4026 2.5069
F 6.6771 0.9346 1.6413
F 5.5477 2.7338 0.9051
C 3.0939 -0.0834 -1.1727
C 1.8263 0.0587 -1.7429
S -2.6295 1.1389 -0.2258
O -3.6268 1.6921 -1.2047
O -3.3214 0.1168 0.6332
C -2.0123 2.4280 0.8036
C -1.5428 2.1385 2.0906
C -1.0105 3.1525 2.8917
C -0.9439 4.4748 2.4172
C -0.3763 5.5511 3.2585
O 0.0598 5.2961 4.4137
O -0.3178 6.8580 2.7814
C -1.4252 4.7607 1.1278
C -1.9554 3.7442 0.3280
N -1.7992 -1.5781 -2.3692
C -1.8241 -2.9135 -2.5896
C -1.3304 -3.8059 -1.6228
H -2.9725 -5.5575 -3.2066
H -1.8272 -6.9340 -3.0786
H -1.3283 -5.4580 -3.9683
H -0.8635 -7.1350 -0.9626
H 0.0360 -6.2076 1.1175
H 0.0913 -3.8102 1.5036
H 0.8767 -1.6292 1.1577
H -0.7733 -1.5448 1.9109
H -0.1050 -0.1596 0.9900
H -0.4343 0.8701 -2.9549
H -0.7396 2.2712 -1.8995
H 0.7928 2.8232 -0.0415
H 3.0053 2.5823 0.9536
H 3.7298 -0.9021 -1.4846
H 1.4937 -0.6596 -2.4818
H -1.5837 1.1276 2.4747
H -0.6497 2.9004 3.8810
H 0.0688 7.6025 3.3493
H -1.3875 5.7683 0.7333
H -2.3092 3.9832 -0.6667
H -2.2384 -3.2642 -3.5241
*
