! B3LYP 6-31G* SP

* xyz -1 1
O -4.2745 3.4064 -3.9321
C -4.6476 2.5215 -3.1246
O -5.6155 1.6091 -3.5242
C -4.0287 2.4216 -1.7812
C -2.9426 3.2462 -1.4247
C -2.3442 3.1246 -0.1657
C -2.8209 2.1824 0.7575
S -2.0098 1.9567 2.3044
O -3.0271 1.7132 3.3842
O -1.2388 3.2033 2.6463
N -0.9256 0.5982 2.2031
C 0.3386 0.6009 2.9471
C 1.4979 0.5069 1.9945
C 1.9393 -0.7440 1.5411
C 2.9440 -0.8269 0.5744
C 3.5060 0.3362 0.0183
C 4.6059 0.2091 -1.0157
F 4.2708 -0.7961 -1.9046
F 4.7392 1.3760 -1.7523
C 5.9246 -0.1799 -0.3161
C 7.2210 0.3119 -0.9446
C 6.7018 0.9598 0.3326
C 3.0674 1.5937 0.4901
F 3.5994 2.7472 0.0182
C 2.0635 1.6739 1.4606
C -1.4445 -0.6492 1.7152
N -2.0672 -1.4519 2.6115
C -2.5932 -2.6452 2.2830
C -2.4998 -3.1140 0.9762
C -3.0577 -4.3651 0.6745
C -2.9878 -4.8785 -0.6150
C -2.3324 -4.1655 -1.6086
C -1.7668 -2.9149 -1.3264
C -1.8482 -2.3314 -0.0266
C -1.3198 -1.0335 0.3466
C -0.6510 0.0223 -0.5648
C 0.3048 -0.4198 -1.6518
C -1.0666 0.1664 -2.0143
C -3.9019 1.3596 0.4079
C -4.5020 1.4809 -0.8496
H -2.5403 3.9731 -2.1200
H -1.4952 3.7523 0.0777
H 0.3622 -0.2488 3.6623
H 0.4293 1.5215 3.5570
H 1.4947 -1.6540 1.9271
H 3.2823 -1.8027 0.2539
H 5.9946 -1.1582 0.2114
H 7.1410 0.9629 -1.8374
H 8.0985 -0.3499 -0.7791
H 6.2840 1.9822 0.1908
H 7.2624 0.6715 1.2453
H 1.7235 2.6458 1.7948
H -3.0871 -3.2245 3.0534
H -3.5535 -4.9525 1.4381
H -3.4333 -5.8379 -0.8401
H -2.2534 -4.5870 -2.6076
H -1.2737 -2.4689 -2.1660
H -0.3400 0.9925 -0.1244
H 1.1573 0.2860 -1.7746
H 0.5011 -1.5078 -1.6419
H -1.0380 1.2257 -2.3557
H -1.9227 -0.4775 -2.3111
H -4.2712 0.6122 1.0992
H -5.3327 0.8323 -1.0971
*
