! B3LYP 6-31G* SP

* xyz 0 1
C -3.1503 2.1359 0.3951
C -3.5226 0.7369 0.8742
N -3.6756 -0.1713 -0.2613
N -4.8479 -0.4731 -0.7917
N -4.6565 -1.2417 -1.8518
N -3.3597 -1.4424 -2.0353
C -2.7457 -0.7698 -1.0421
C -1.2714 -0.7200 -0.8952
S -0.3900 -0.1500 0.4220
C 1.1119 -0.5072 -0.2523
C 2.4281 -0.2595 0.3795
C 2.5198 0.3293 1.6550
C 3.7688 0.5584 2.2406
C 4.9371 0.2040 1.5628
C 4.8595 -0.3807 0.2967
F 5.9944 -0.7244 -0.3607
C 3.6127 -0.6121 -0.2937
N 0.9626 -1.0660 -1.4745
C -0.3454 -1.1874 -1.8302
O -0.7168 -1.7406 -3.0516
H -2.1974 2.1145 -0.1728
H -3.9516 2.5374 -0.2608
H -3.0309 2.8099 1.2692
H -2.7711 0.3485 1.5888
H -4.4846 0.7973 1.4283
H 1.6310 0.6141 2.2025
H 3.8305 1.0116 3.2216
H 5.9020 0.3830 2.0195
H 3.5756 -1.0665 -1.2759
H -0.0166 -2.0682 -3.7059
*
