! B3LYP 6-31G* SP

* xyz 0 1
C 0.3210 2.2882 1.0160
C 1.0222 1.0949 0.4249
C 2.4083 1.1718 0.1530
C 3.0312 0.0491 -0.3816
N 4.3205 -0.1094 -0.7176
N 4.4834 -1.3430 -1.1840
C 3.2863 -1.9777 -1.1448
C 2.3521 -1.1026 -0.6360
C 0.9936 -1.2342 -0.3785
C 0.3125 -0.1185 0.1572
C -1.1301 -0.2442 0.4572
C -1.5127 -0.4776 1.7875
C -2.8585 -0.6246 2.1221
C -3.8360 -0.5473 1.1319
C -3.4734 -0.3143 -0.1964
C -2.1208 -0.1433 -0.5551
C -1.7486 0.1024 -2.0049
F -1.1506 -1.0296 -2.5260
F -0.8695 1.1661 -2.1002
F -2.8610 0.4022 -2.7727
H 0.0591 2.0790 2.0740
H 0.9629 3.1941 0.9835
H -0.6063 2.5076 0.4461
H 2.9773 2.0717 0.3509
H 5.0827 0.5994 -0.6345
H 3.1176 -2.9980 -1.4625
H 0.4806 -2.1668 -0.5794
H -0.7634 -0.5511 2.5667
H -3.1435 -0.8059 3.1504
H -4.8791 -0.6705 1.3933
H -4.2579 -0.2681 -0.9406
*
