! B3LYP 6-31G* SP

* xyz 0 1
O 1.0293 0.0531 0.6951
C 1.0999 -0.2176 -0.5357
N 2.3468 -0.0720 -1.2319
C 3.6275 -0.0172 -0.5813
C 4.6734 0.7086 -1.1671
C 5.9274 0.7495 -0.5551
C 6.1304 0.0482 0.6343
N 5.1160 -0.6727 1.1808
C 3.8844 -0.7250 0.6063
N -0.0851 -0.6250 -1.2554
C 0.0285 -1.8453 -2.0614
C -0.2036 -3.0897 -1.1719
C -1.0214 -2.8331 0.0906
C -1.1671 -3.8832 1.0103
C -1.7925 -3.6688 2.2387
C -2.2597 -2.3987 2.5731
C -2.1324 -1.3411 1.6702
C -1.5476 -1.5499 0.4041
C -1.4254 -0.4728 -0.6625
C -1.8245 0.9627 -0.2944
C -3.1576 1.2085 0.0916
C -3.6007 2.5010 0.3813
C -2.7303 3.5937 0.2623
C -3.2204 4.9948 0.5262
F -2.1817 5.8011 0.9584
F -3.7447 5.5213 -0.6395
F -4.2020 4.9935 1.5022
C -1.4336 3.3744 -0.2249
C -0.9905 2.0805 -0.5152
H 2.3089 0.0894 -2.2636
H 4.5129 1.2493 -2.0914
H 6.7345 1.3175 -0.9993
H 7.0974 0.0697 1.1188
H 3.1196 -1.3376 1.0636
H -0.7292 -1.8252 -2.8757
H 1.0194 -1.9135 -2.5596
H -0.6972 -3.8828 -1.7738
H 0.7908 -3.4779 -0.8602
H -0.7723 -4.8660 0.7832
H -1.8923 -4.4839 2.9438
H -2.7174 -2.2308 3.5395
H -2.4757 -0.3692 1.9866
H -2.1739 -0.7484 -1.4411
H -3.8639 0.3903 0.1654
H -4.6297 2.6466 0.6855
H -0.7663 4.2087 -0.4031
H -0.0085 1.9854 -0.9478
*
