! B3LYP 6-31G* SP

* xyz 0 1
F -2.4549 2.9465 0.9007
C -1.4576 2.0587 0.5348
F -0.7953 2.5747 -0.5633
F -0.5728 1.9558 1.5931
C -2.0230 0.6940 0.1906
C -3.4133 0.5306 0.0235
C -3.9522 -0.7176 -0.2955
C -3.1163 -1.8202 -0.4624
C -1.7363 -1.6780 -0.3199
C -1.1773 -0.4300 -0.0026
C 0.2922 -0.3329 0.1118
C 1.0342 0.1846 -0.9734
C 2.4161 0.2521 -0.8385
C 3.4084 0.6962 -1.6844
N 4.6004 0.5381 -1.0584
N 4.3790 0.0125 0.1419
C 3.0574 -0.1663 0.2880
C 2.3694 -0.6903 1.3778
C 0.9655 -0.7778 1.2872
Cl 0.0729 -1.4268 2.6577
H -4.0911 1.3663 0.1396
H -5.0223 -0.8294 -0.4149
H -3.5380 -2.7860 -0.7095
H -1.0985 -2.5421 -0.4630
H 0.5492 0.5173 -1.8830
H 3.2823 1.1038 -2.6786
H 5.1241 -0.2153 0.8370
H 2.8978 -1.0182 2.2639
*
