! B3LYP 6-31G* SP

* xyz 0 1
C -6.6204 -1.0396 1.2039
C -6.2152 0.1380 0.2911
C -6.7611 -0.1057 -1.1330
C -6.8945 1.4153 0.8412
C -4.6768 0.2442 0.2417
C -3.9736 1.3894 0.6838
C -2.5785 1.4441 0.6228
C -1.8426 0.3707 0.1093
N -0.4066 0.4468 0.0800
C 0.4091 -0.2021 -0.9111
O -0.1078 -0.5674 -2.0028
N 1.8193 -0.4064 -0.6826
C 2.6854 -0.8480 -1.7869
C 4.0926 -0.2589 -1.6365
N 4.6125 -0.4382 -0.2751
C 5.9419 0.0204 0.0244
N 6.3018 1.2851 -0.3334
C 7.5390 1.7858 -0.0779
C 8.4914 0.9975 0.5670
C 8.1622 -0.3076 0.9325
C 6.8865 -0.8119 0.6611
Cl 6.5420 -2.4909 1.0560
C 3.7457 -0.9653 0.7854
C 2.3530 -0.3362 0.6878
C -2.5236 -0.7811 -0.3102
C -3.9179 -0.8409 -0.2502
H -7.7267 -1.1107 1.2881
H -6.2006 -0.9000 2.2236
H -6.2544 -2.0091 0.8062
H -6.4004 -1.0689 -1.5502
H -6.4407 0.7120 -1.8145
H -7.8722 -0.1418 -1.1287
H -8.0003 1.3004 0.8518
H -6.6566 2.2954 0.2053
H -6.5719 1.6177 1.8855
H -4.4819 2.2546 1.0820
H -2.0681 2.3341 0.9698
H 0.0599 1.0891 0.7587
H 2.2763 -0.5216 -2.7677
H 2.7413 -1.9581 -1.7854
H 4.0558 0.8264 -1.8752
H 4.7722 -0.7559 -2.3621
H 7.7824 2.7968 -0.3757
H 9.4787 1.3907 0.7722
H 8.9039 -0.9311 1.4156
H 3.6588 -2.0676 0.6736
H 4.1711 -0.7464 1.7896
H 1.6756 -0.8750 1.3859
H 2.4148 0.7282 1.0011
H -1.9797 -1.6473 -0.6629
H -4.4009 -1.7488 -0.5850
*
