! B3LYP 6-31G* SP

* xyz 0 1
C 0.7285 -0.8258 2.0357
C 0.6056 -1.2138 0.5509
C 1.8828 -1.7875 -0.0370
C 1.7876 -2.8021 -1.0072
C 2.9368 -3.3206 -1.6098
C 4.1944 -2.8244 -1.2636
C 4.3059 -1.8047 -0.3152
Cl 5.8859 -1.1686 0.1044
C 3.1582 -1.2837 0.2929
N 0.1021 -0.1043 -0.2891
C -0.9703 -0.3940 -1.2119
O -0.7664 -0.2961 -2.4528
C -2.2995 -0.8349 -0.7285
C -2.7438 -0.5135 0.5638
C -4.0050 -0.9258 0.9950
C -4.8176 -1.6579 0.1293
N -4.3819 -1.9593 -1.1214
C -3.1585 -1.5662 -1.5669
C 0.7401 1.2336 -0.2726
C 1.1271 1.7091 -1.6606
N 1.9853 0.9152 -2.4803
O 0.7305 2.8245 -2.0941
C -0.1498 2.2219 0.4656
C -1.3994 2.6097 -0.0577
C -2.2219 3.4931 0.6476
C -1.8109 3.9966 1.8841
C -0.5743 3.6219 2.4142
C 0.2535 2.7412 1.7108
H -0.2610 -0.5284 2.4375
H 1.4289 0.0133 2.2035
H 1.0851 -1.6993 2.6225
H -0.1470 -2.0354 0.5495
H 0.8203 -3.1896 -1.3025
H 2.8509 -4.1042 -2.3514
H 5.0801 -3.2284 -1.7372
H 3.2738 -0.4850 1.0107
H -2.1322 0.0769 1.2299
H -4.3517 -0.6736 1.9885
H -5.7964 -1.9843 0.4508
H -2.8566 -1.8312 -2.5717
H 1.7050 1.1692 0.2687
H 2.3270 -0.0165 -2.1580
H 2.2611 1.2497 -3.4305
H -1.7370 2.2345 -1.0142
H -3.1794 3.7865 0.2353
H -2.4489 4.6804 2.4297
H -0.2555 4.0149 3.3726
H 1.2085 2.4668 2.1405
*
