! B3LYP 6-31G* SP

* xyz -1 1
C -3.8421 -1.0010 1.1964
C -2.8791 -2.1317 0.9121
C -1.6066 -1.8726 0.3479
N -1.1937 -0.5411 0.0227
C -0.6062 0.3196 1.0525
C 0.8350 0.6226 0.7411
C 1.2520 1.9430 0.5253
C 2.5851 2.2181 0.2229
C 3.5341 1.1927 0.1271
O 4.8484 1.5992 -0.1729
C 6.0109 0.7802 -0.2413
C 7.2275 1.6692 -0.5216
C 7.9462 2.2072 0.7076
C 8.5652 1.0811 -0.1059
C 3.1135 -0.1517 0.3426
Cl 4.1594 -1.5617 0.2189
C 1.7738 -0.4148 0.6591
S -1.3696 0.0199 -1.6124
O -2.1959 -0.9582 -2.4012
O -0.0173 0.1282 -2.2578
C -2.1835 1.5807 -1.6208
C -3.5732 1.6455 -1.4602
C -4.2217 2.8825 -1.4193
C -3.4886 4.0737 -1.5404
C -4.1717 5.3852 -1.4883
O -5.4184 5.4548 -1.3231
O -3.4439 6.5602 -1.6145
C -2.0938 4.0019 -1.7081
C -1.4465 2.7632 -1.7480
N -0.7551 -2.8953 0.0884
C -1.0664 -4.1865 0.3510
C -2.3106 -4.5121 0.8922
C -2.6454 -5.8514 1.1442
C -3.9044 -6.1783 1.6480
C -4.8299 -5.1727 1.9181
C -4.5059 -3.8334 1.6881
C -3.2414 -3.4791 1.1695
H -4.1579 -1.0319 2.2589
H -4.7317 -1.0969 0.5410
H -3.4038 -0.0016 1.0235
H -1.2027 1.2539 1.1285
H -0.6561 -0.1800 2.0461
H 0.5469 2.7612 0.5919
H 2.8853 3.2477 0.0576
H 5.9109 0.0667 -1.0848
H 6.1338 0.2281 0.7165
H 7.2640 2.3069 -1.4259
H 7.5495 1.8787 1.6962
H 8.4301 3.1934 0.5592
H 9.4201 1.4018 -0.7382
H 8.5307 0.0877 0.3913
H 1.4606 -1.4398 0.8382
H -4.1539 0.7383 -1.3597
H -5.2962 2.9057 -1.2886
H -1.5020 4.9019 -1.8021
H -0.3714 2.7298 -1.8690
H -0.3427 -4.9592 0.1251
H -1.9367 -6.6441 0.9420
H -4.1588 -7.2152 1.8271
H -5.8027 -5.4300 2.3126
H -5.2560 -3.0901 1.9107
*
