! B3LYP 6-31G* SP

* xyz 0 1
C 0.2727 1.4207 -1.7769
C -0.6474 1.8026 -0.6380
C -1.3371 0.8098 0.0978
N -1.1969 -0.5808 -0.2155
C -0.4516 -1.4575 0.6879
C 1.0129 -1.1226 0.6324
C 1.5549 -0.1730 1.5101
C 2.8994 0.1939 1.4108
C 3.7241 -0.3757 0.4245
C 5.1523 0.0172 0.3157
C 5.9331 0.2045 1.4722
C 7.2784 0.5712 1.3672
C 7.8588 0.7554 0.1104
F 9.1634 1.1114 0.0112
C 7.0941 0.5739 -1.0446
C 5.7487 0.2073 -0.9453
C 3.1724 -1.3194 -0.4602
C 1.8276 -1.6856 -0.3593
S -2.1528 -1.2657 -1.4912
O -1.2701 -2.0906 -2.3864
O -2.7776 -0.1728 -2.3134
C -3.4237 -2.2568 -0.7860
C -4.4658 -1.6463 -0.0789
C -5.4686 -2.4229 0.5085
C -5.4393 -3.8251 0.4004
C -6.4956 -4.6530 1.0226
O -7.4347 -4.1116 1.6670
O -6.4621 -6.0400 0.9031
C -4.3869 -4.4320 -0.3077
C -3.3853 -3.6528 -0.8945
N -2.1334 1.1620 1.1404
C -2.3139 2.4512 1.5147
C -1.6659 3.4795 0.8266
C -1.8486 4.8158 1.2152
C -1.1954 5.8407 0.5307
C -0.3576 5.5414 -0.5433
C -0.1672 4.2156 -0.9416
C -0.8184 3.1610 -0.2642
H 0.3204 0.3285 -1.9509
H -0.0810 1.8909 -2.7178
H 1.3048 1.7636 -1.5540
H -0.6009 -2.5228 0.4060
H -0.8389 -1.3434 1.7239
H 0.9322 0.2948 2.2625
H 3.2877 0.9415 2.0909
H 5.5085 0.0495 2.4562
H 7.8715 0.7082 2.2622
H 7.5422 0.7204 -2.0188
H 5.1708 0.0894 -1.8532
H 3.7835 -1.7836 -1.2233
H 1.4192 -2.4033 -1.0593
H -4.4993 -0.5684 0.0206
H -6.2645 -1.9259 1.0488
H -7.1801 -6.6164 1.3246
H -4.3342 -5.5092 -0.4060
H -2.5798 -4.1417 -1.4278
H -2.9636 2.6695 2.3529
H -2.4950 5.0663 2.0482
H -1.3382 6.8698 0.8343
H 0.1470 6.3405 -1.0707
H 0.4909 4.0310 -1.7797
*
