! B3LYP 6-31G* SP

* xyz 0 1
C 2.5533 3.3183 -0.9676
N 3.1052 1.9966 -0.6084
C 2.6326 1.3423 0.4956
O 1.7385 1.8938 1.1913
C 3.1362 0.0671 0.8512
C 2.7000 -0.6664 2.0093
C 1.6241 -0.1964 2.9747
C 0.2518 -0.3382 2.3789
O -0.5324 0.6488 2.3970
N -0.1780 -1.6003 1.8442
C -1.3918 -1.7726 1.1014
C -1.8438 -2.9719 0.5930
C -3.0129 -2.6405 -0.0591
N -3.2223 -1.3102 0.0684
C -4.3174 -0.5428 -0.4744
C -5.4782 -1.1713 -0.9631
C -6.5348 -0.4114 -1.4685
C -6.4487 0.9810 -1.5008
C -5.2926 1.6313 -1.0398
C -5.2168 3.1378 -1.0258
F -3.9097 3.5615 -1.1940
F -5.9802 3.6777 -2.0464
F -5.6896 3.6057 0.1859
C -4.2431 0.8627 -0.5053
N -2.2337 -0.7758 0.7707
C 3.2637 -1.9242 2.2765
C 4.2338 -2.4640 1.4499
C 4.6635 -1.7700 0.3295
C 4.1291 -0.5012 0.0006
N 4.5492 0.1733 -1.1274
C 5.5623 -0.4236 -2.0262
C 4.0259 1.4054 -1.4284
O 4.3931 2.0064 -2.4786
H 3.3055 3.9431 -1.4952
H 1.6655 3.1860 -1.6215
H 2.2595 3.8964 -0.0655
H 1.6422 -0.7938 3.9120
H 1.8219 0.8433 3.3082
H 0.4313 -2.4371 1.9850
H -1.3819 -3.9469 0.6735
H -3.6416 -3.3304 -0.6044
H -5.5867 -2.2459 -0.9365
H -7.4290 -0.9041 -1.8286
H -7.2880 1.5491 -1.8818
H -3.3634 1.3604 -0.1169
H 2.9454 -2.5030 3.1354
H 4.6545 -3.4355 1.6772
H 5.4195 -2.2508 -0.2737
H 5.1885 -1.3888 -2.4298
H 6.5117 -0.5843 -1.4724
H 5.8085 0.2132 -2.9003
*
