! B3LYP 6-31G* SP

* xyz 0 1
C -3.7084 3.2989 -0.4895
C -4.6333 2.1444 -0.2810
O -5.5456 2.1089 0.6711
C -6.1521 0.9477 0.5937
C -5.6424 0.1943 -0.4190
C -4.6505 0.9573 -1.0163
C -3.7084 0.5690 -2.1215
C -2.4054 0.1002 -1.5483
O -1.4109 0.8758 -1.5609
N -2.3043 -1.2089 -0.9681
C -1.1295 -1.7044 -0.3133
N -0.0157 -0.9732 -0.0969
C 0.9449 -1.6839 0.5602
C 2.2583 -1.0761 0.9018
C 3.1444 -1.6930 1.8018
C 4.3720 -1.1016 2.1099
F 5.2076 -1.7197 2.9831
C 4.7541 0.1088 1.5205
O 6.0149 0.6253 1.8678
C 6.8609 1.4647 1.0732
C 7.6536 0.6701 -0.0018
C 8.3982 -0.5107 0.6538
C 6.7174 0.1353 -1.1035
C 8.6868 1.6125 -0.6530
C 3.8574 0.7489 0.6381
F 4.1299 1.9562 0.0934
C 2.6263 0.1563 0.3366
C 0.5800 -3.0022 0.8636
S -0.9817 -3.2609 0.2969
C -6.1461 -1.0805 -0.6551
O -5.7094 -1.7726 -1.6145
N -7.1334 -1.5614 0.1749
C -7.6975 -2.9018 -0.0617
C -7.6452 -0.7657 1.1848
O -8.5697 -1.2055 1.9253
N -7.1581 0.5055 1.3941
C -7.6689 1.3428 2.4867
H -4.0320 4.1589 0.1330
H -3.7166 3.6056 -1.5559
H -2.6792 3.0089 -0.1931
H -4.1482 -0.2265 -2.7560
H -3.5357 1.4447 -2.7829
H -3.1326 -1.8424 -1.0172
H 2.8920 -2.6255 2.2854
H 6.3083 2.3139 0.6306
H 7.5915 1.9287 1.7706
H 9.0201 -1.0463 -0.0956
H 9.0666 -0.1503 1.4630
H 7.6805 -1.2396 1.0882
H 6.1150 0.9602 -1.5412
H 6.0324 -0.6427 -0.7088
H 7.3071 -0.3330 -1.9221
H 8.1800 2.4806 -1.1256
H 9.4033 1.9953 0.1039
H 9.2683 1.0811 -1.4379
H 1.9590 0.6684 -0.3430
H 1.1840 -3.7495 1.3587
H -8.0282 -3.3725 0.8877
H -8.5629 -2.8237 -0.7512
H -6.9419 -3.5864 -0.5020
H -7.2549 0.9840 3.4534
H -7.3875 2.4101 2.3492
H -8.7790 1.2974 2.5213
*
